p cnf 10 20
8 -6 5 0
-5 1 -4 0
-1 9 -2 0
-8 4 10 0
-9 -6 5 0
7 -6 -1 0
1 -4 9 0
-10 1 -7 0
8 5 3 0
3 -10 -1 0
3 6 -10 0
-10 4 1 0
6 -5 10 0
-5 -8 -10 0
4 1 -6 0
-4 8 5 0
-8 2 9 0
9 -6 4 0
-5 2 -8 0
3 7 -6 0
